Set parameter TokenServer to value "hpc-licenses.hpcc.usc.edu"
Set parameter TimeLimit to value 3600
Gurobi Optimizer version 9.5.1 build v9.5.1rc2 (linux64)
Thread count: 20 physical cores, 20 logical processors, using up to 20 threads
Optimize a model with 6007 rows, 4529 columns and 24534 nonzeros
Model fingerprint: 0xbfe9ce45
Variable types: 4506 continuous, 23 integer (23 binary)
Coefficient statistics:
  Matrix range     [1e+00, 1e+00]
  Objective range  [1e-03, 1e+00]
  Bounds range     [1e+00, 1e+00]
  RHS range        [1e+00, 6e+01]
Found heuristic solution: objective 255.9425783
Presolve removed 1520 rows and 1515 columns
Presolve time: 0.05s
Presolved: 4487 rows, 3014 columns, 21975 nonzeros
Variable types: 2994 continuous, 20 integer (20 binary)

Root relaxation: objective 2.652334e+02, 2798 iterations, 0.09 seconds (0.13 work units)

    Nodes    |    Current Node    |     Objective Bounds      |     Work
 Expl Unexpl |  Obj  Depth IntInf | Incumbent    BestBd   Gap | It/Node Time

     0     0  265.23341    0    4  255.94258  265.23341  3.63%     -    0s
H    0     0                     258.2201350  265.23341  2.72%     -    0s
     0     0  264.83892    0    4  258.22014  264.83892  2.56%     -    0s
     0     0  264.47454    0    4  258.22014  264.47454  2.42%     -    0s
     0     0  264.46475    0    5  258.22014  264.46475  2.42%     -    0s
     0     0  264.46446    0    6  258.22014  264.46446  2.42%     -    0s
     0     0  264.46035    0    6  258.22014  264.46035  2.42%     -    0s
H    0     0                     258.7383651  264.46035  2.21%     -    0s
     0     0  264.18783    0    6  258.73837  264.18783  2.11%     -    0s
     0     0  264.15727    0    6  258.73837  264.15727  2.09%     -    0s
H    0     0                     263.3573367  264.15078  0.30%     -    0s
     0     0  264.15078    0    5  263.35734  264.15078  0.30%     -    0s
     0     0  264.14897    0    6  263.35734  264.14897  0.30%     -    0s
     0     0  264.07724    0    6  263.35734  264.07724  0.27%     -    0s
     0     0  264.07724    0    4  263.35734  264.07724  0.27%     -    1s
     0     0  264.07724    0    4  263.35734  264.07724  0.27%     -    2s
     0     0  264.06201    0    6  263.35734  264.06201  0.27%     -    2s
     0     0  264.06092    0    6  263.35734  264.06092  0.27%     -    2s
     0     0  263.93377    0    4  263.35734  263.93377  0.22%     -    2s
     0     0  263.93377    0    6  263.35734  263.93377  0.22%     -    2s
     0     0  263.93377    0    6  263.35734  263.93377  0.22%     -    2s
     0     0  263.91763    0    6  263.35734  263.91763  0.21%     -    2s

Cutting planes:
  Gomory: 3
  MIR: 432
  RLT: 23
  Relax-and-lift: 7

Explored 1 nodes (5699 simplex iterations) in 2.36 seconds (0.97 work units)
Thread count was 20 (of 20 available processors)

Solution count 4: 263.357 258.738 258.22 255.943 

Optimal solution found (tolerance 1.00e-04)
Best objective 2.633573367365e+02, best bound 2.633573367365e+02, gap 0.0000%



#########node  1
V1.9
#########node  2
0.0,1.0
#########node  3
0.9821428571428572,0.017857142857142794


Total Solving Time 2.7157304286956787
obj value 263.35733673650947
Policy Regret train (Sum) 18.330847802036036
Best Treatment Found train (%) 39.4
treatment classification acc train (%) 56.2
Policy Regret test (Sum) 105.47520302296739
Best Treatment Found test (%) 66.02
treatment classification acc test (%) 58.58
